

*************************************************************

   NEOS Server Version 6.0
   Job#     : 15887864
   Password : LauKNnJW
   User     : 
   Solver   : milp:CPLEX:AMPL
   Start    : 2025-04-15 11:08:09
   End      : 2025-04-15 11:08:12
   Host     : prod-sub-1.neos-server.org

   Disclaimer:

   This information is provided without any express or
   implied warranty. In particular, there is no warranty
   of any kind concerning the fitness of this
   information for any particular purpose.

   Announcements:
*************************************************************
You are using the solver cplexamp.
Checking ampl.mod for cplex_options...
Checking ampl.com for cplex_options...
Executing AMPL.
processing data.
processing commands.
Executing on prod-exec-6.neos-server.org
C = 9

set N := 1 2 3 4 5 6 7;

:   P   W    :=
1   6   2
2   5   3
3   8   6
4   9   7
5   6   5
6   7   9
7   3   4
;

subject to C_capacity:
	2*X[1] + 3*X[2] + 6*X[3] + 7*X[4] + 5*X[5] + 9*X[6] + 4*X[7] <= 9;

maximize objective_function:
	6*X[1] + 5*X[2] + 8*X[3] + 9*X[4] + 6*X[5] + 7*X[6] + 3*X[7];


"option presolve 10;" used, but "option presolve 2;" would suffice.
7 variables, all binary
1 constraint, all linear; 7 nonzeros
	1 inequality constraint
1 linear objective; 7 nonzeros.

CPLEX 22.1.2:   tech:threads = 4
  tech:outlev = 1
 - Version identifier: 22.1.2.0 | 2024-11-26 | 0edbb82fd
 - CPXPARAM_Threads                                 4
 - CPXPARAM_MIP_Display                             3
 - Found incumbent of value 0.000000 after 0.00 sec. (0.00 ticks)
 - Tried aggregator 1 time.
 - MIP Presolve added 2 rows and 2 columns.
 - Reduced MIP has 3 rows, 9 columns, and 15 nonzeros.
 - Reduced MIP has 7 binaries, 2 generals, 0 SOSs, and 0 indicators.
 - Presolve time = 0.00 sec. (0.01 ticks)
 - Probing fixed 0 vars, tightened 1 bounds.
 - Probing time = 0.00 sec. (0.01 ticks)
 - Cover probing fixed 0 vars, tightened 1 bounds.
 - Tried aggregator 1 time.
 - Detecting symmetries...
 - MIP Presolve eliminated 2 rows and 2 columns.
 - MIP Presolve added 2 rows and 2 columns.
 - Reduced MIP has 3 rows, 9 columns, and 15 nonzeros.
 - Reduced MIP has 7 binaries, 2 generals, 0 SOSs, and 0 indicators.
 - Presolve time = 0.00 sec. (0.01 ticks)
 - Probing time = 0.00 sec. (0.00 ticks)
 - Clique table members: 4.
 - MIP emphasis: balance optimality and feasibility.
 - MIP search method: dynamic search.
 - Parallel mode: deterministic, using up to 4 threads.
 - Root relaxation solution time = 0.00 sec. (0.01 ticks)
 - 
        Nodes                                         Cuts/
 -    Node  Left     Objective  IInf  Best Integer    Best Bound    ItCnt     Gap

 - *     0+    0                            0.0000       44.0000              --- 
 - Found incumbent of value 0.000000 after 0.00 sec. (0.06 ticks)
 - *     0+    0                           15.0000       44.0000           193.33%
 - Found incumbent of value 15.000000 after 0.00 sec. (0.06 ticks)
 -       0     0       16.3333     2       15.0000       16.3333        1    8.89%
 -       0     0        cutoff             15.0000                      2     --- 
 - Elapsed time = 0.01 sec. (0.07 ticks, tree = 0.01 MB, solutions = 2)
 - 
Root node processing (before b&c):
 -   Real time             =    0.01 sec. (0.07 ticks)
 - Parallel b&c, 4 threads:
 -   Real time             =    0.00 sec. (0.00 ticks)
 -   Sync time (average)   =    0.00 sec.
 -   Wait time (average)   =    0.00 sec.
 -                           ------------
 - Total (root+branch&cut) =    0.01 sec. (0.07 ticks)
CPLEX 22.1.2: optimal solution; objective 15
2 simplex iterations
objective_function = 15

X [*] :=
1  1
2  0
3  0
4  1
5  0
6  0
7  0
;

NEOS Server Home

